
Gurobi 12.0.2 (win64) logging started Tue Nov 25 16:46:11 2025

Set parameter LogFile to value "C:\Ioana\_uni\honours\slp\algorithm\Main_files\results\paracetamol_respiration_improved\Task_001_Sample005_irr_gurobi.log"
Gurobi Optimizer version 12.0.2 build v12.0.2rc0 (win64 - Windows 11.0 (26100.2))

CPU model: Intel(R) Core(TM) Ultra 5 125H, instruction set [SSE2|AVX|AVX2]
Thread count: 14 physical cores, 18 logical processors, using up to 18 threads

Non-default parameters:
TimeLimit  2200

Optimize a model with 47236 rows, 34506 columns and 146716 nonzeros
Model fingerprint: 0x5ec41aa4
Variable types: 17257 continuous, 17249 integer (17249 binary)
Coefficient statistics:
  Matrix range     [1e-04, 8e+04]
  Objective range  [1e-04, 9e-01]
  Bounds range     [1e+00, 1e+03]
  RHS range        [1e+00, 1e+00]
Presolve removed 30789 rows and 21548 columns
Presolve time: 0.52s
Presolved: 16447 rows, 12958 columns, 54677 nonzeros
Variable types: 6415 continuous, 6543 integer (6543 binary)

Root relaxation: objective 3.226464e-02, 2049 iterations, 0.20 seconds (0.24 work units)

    Nodes    |    Current Node    |     Objective Bounds      |     Work
 Expl Unexpl |  Obj  Depth IntInf | Incumbent    BestBd   Gap | It/Node Time

     0     0    0.03226    0   43          -    0.03226      -     -    0s
H    0     0                       2.4978476    0.03226  98.7%     -    0s
H    0     0                       2.4829558    0.03226  98.7%     -    0s
     0     0    0.89560    0   56    2.48296    0.89560  63.9%     -    1s
     0     0    1.75886    0   61    2.48296    1.75886  29.2%     -    1s
     0     0    2.00351    0   74    2.48296    2.00351  19.3%     -    2s
     0     0    2.00804    0   68    2.48296    2.00804  19.1%     -    2s
     0     0    2.01621    0   74    2.48296    2.01621  18.8%     -    2s
     0     0    2.04773    0   91    2.48296    2.04773  17.5%     -    2s
     0     0    2.04773    0   94    2.48296    2.04773  17.5%     -    2s
     0     2    2.04773    0   94    2.48296    2.04773  17.5%     -    2s
   329    99    2.32043   28   28    2.48296    2.17015  12.6%  94.5    5s
  2655  1319     cutoff   51         2.48296    2.31048  6.95%  31.6   10s
  3030  1422    2.37409   45   96    2.48296    2.31048  6.95%  32.9   15s

Explored 3039 nodes (112032 simplex iterations) in 16.16 seconds (17.41 work units)
Thread count was 18 (of 18 available processors)

Solution count 3: 2.48296 2.48296 2.49785 

Optimal solution found (tolerance 1.00e-04)
Best objective 2.482955794374e+00, best bound 2.482955794374e+00, gap 0.0000%
